40
     4    72    79    38    86    43    42    86    34    77     9    49    17    28   100    44    32     2    12    92     3    59    22    16    82    12    84    44    52    27    30     7    20    24    72    36    25    75    99    69
     5     2     9     4     9     9    10     8     4    10     8     9     5     2     5     4     9     7     5     9     7     5     9     2     1    10     6     2     1     2     4     8     6     7    10     2     1     8     6     5
  1241  1177   952  1274  1716  1866  1388  1739  1257  1384  1903  1703  1428  1738   980  1550  1451  1819  1662  1977  1347  1417   915  1253  1283  1459  1145  1672  1486  1548  1721  1418  1591  1275  1845  1007  1624   994  1800  1640
